20
84.0
0 19 38.02 5.97
1 18 34.96 4.07
2 17 48.23 5.89
3 16 46.82 5.48
4 15 40.04 4.56
5 14 49.23 5.34
6 13 37.13 5.71
7 12 48.55 5.22
8 11 41.61 5.11
9 10 51.05 6.3
10 9 52.4 4.88
11 8 37.38 5.45
12 7 34.36 5.16
13 6 37.27 2.84
14 5 31.75 6.79
15 4 31.91 2.76
16 3 25.07 6.99
17 2 15.58 1.63
18 1 55.9 7.63
